; -*- LISP -*-
;
; This is an input file for flac, not a LISP source code.
; But it is displayed in LISP mode to distinguish the comments.
;
;;;;;;;;;;;;;;;;;;;;;;;;;;;;;;;;;
; Simple ocean-ocean subduction
;;;;;;;;;;;;;;;;;;;;;;;;;;;;;;;;;
;
;==================================================================
;             M e s h    P a r a m e t e r s 
;==================================================================
100,40
0.0,0.0
600000.0,-200000.0
;
0, points.xy
;
; X direction
5
; nelem_per_zone    size (relative)
 15  4.0
 5  0.0
 65  1.0
 5  0.0
 10  4.0
;
; Z direction
3
; nelem_per_zone    size (relative)
 22  1.0
  8  0.0
 10  6.0
; 
;===================================================================
;        C o n d i t i o n s:  M e c h a n i c a l
;===================================================================
; nystressbc, nydrsides
; Stress boundary conditions (0:no,1:yes), lithostatic stress bc on the sides (0/1)
0  0
; nofbc: Number of boundary conditions
2
;----------------------------------------------------------------
;nofside       1-left,2-bottom,3-right,4-top,5-mid-plate
;nbc1,nbc2     range of application of boundary condition
;nbc           type of boundary condition
;  there are the following forms of boundary conditions:
;  0  - no conditions
;  10 - velx            01 - velz
;  20 - normal stress   02 - shear stress (x,z) plane
;  30 - vely                (strike slip version)
;----------------------------------------------------------------
;  Function of boundary conditions:
;------------------------------------------------------------------
;f = a + bx + cx**2 + (d cos (2pi ex) + f sin (2pi gx))*exp((x-i)*h)^2
;Dependence on time:   f(time) = f*(1 + df1*nstep) + df2*nstep
;------------------------------------------------------------------
;where x is undimensional. i.e. x = (x - x(na1)) / (x(na2) - x(na1))
;-------------------------------------------------------------------------------
;nofside  nbc1 nbc2  nbc   a       b    c     d     e     f      g     h     i 
1  1  41  10  1.56e-09  0  0  0  0  0  0  0  0
3  1  41  10    0       0  0  0  0  0  0  0  0
;
; Hydrostatic pressure  applied at the bottom (on the depth of rzbo and TOP!!)
; {y,n(1,0),auto(2)}, Pressure at compens.depth, substratum phase, addit. dens. diff, damp_vis
2  0.0  4  0.0  0.0
;
; Gravity
10.0
;=============================================================
;            C o n d i t i o n s : T h e r m a l
;=============================================================
0
0.0
1
0
1
10.0
1330.0
;
; Radiogenic heating
1e-09, 10.0
;
; Bottom Boundary conditions flag and value (1- temperature, 2- heat flux in mW/m2 ) 
1 1330.0
;
; Predefined distributions
0
proftemp.dat
;
; Initial varying thermal age crust and mantle accross the box (see doc/input_description.md for the meaning of parameters)
2
;ictherm, age (Myr.), tp1, tp2, nph_layer (N), x nodes 1 and 2
;    nph_layer (N), layer depth #1 (km), #2, ..., #N-1
;    layer phase #1, #2, ..., #N
 1, 140.0, 0.0, 0.0, 1, 31
    4, 1.5 7.5 17.5
    1 3 16 4
 1, 60.0, 0.0, 0.0, 32, 101
    4, 1.5 7.5 17.5
    1 3 4 4
;
;===================================================================
;                     R h e o l o g y
;===================================================================
; Number of material phases
18
;-------------------------------------------------------------------
; List of material phases (rheol #, den, alfa, beta, n, A, E, V, Lame:rl, Lame:rm,pls1,pls2,fric1,fric2, coh1, coh2,dilat1,dilat2,cond, cp, Ts, Tl, Tk, fk)
;
; Rheology Type (irheol):
; 0-elastic, 1-viscous(Newtonian), 2-viscous(power-law), 11-elasto-plastic, 12-elasto-visco-plastic
;
; Strain-softening behavior of friction and cohesion:
; Friction drops from fric1 to fric2 between plastic strain pls1 and pls2
; Cohesion drops from coh1 to coh2 between plastic strain pls1 and pls2
; (plastic strain is calculated from invariant strain rate tensor: \dot{\epsilon_{II}} = \sqrt{ 0.5 \dot{\epsilon_{ij}} \dot{\epsilon_{ij}} })
;
; Hydro-thermal properties:
; (cond: thermal conductivity, cp: heat capacity, Ts: solidus temp., Tl: liquidus temp., Tk: latent heat temp., fk: latent heat fraction)
;-------------------------------------------------------------------
;(1) sediment, generated by erosion
12, 1, 2400, 3e-05, 0, 3, 500, 200000, 0, 3e+10, 3e+10, 0, 0.1, 3, 3, 4e+06, 4e+06, 0, 0, 3.3, 1000, 13000, 16000, 16000, 1
;(2) continental crust, same as (6)
12, 1, 2800, 3e-05, 0, 3.05, 0.125, 276000, 0, 3e+10, 3e+10, 0, 0.1, 30, 15, 4e+07, 4e+06, 0, 0, 3.3, 1000, 13000, 16000, 16000, 1
;(3) basalt, same as (7)            
12, 1, 2880, 3e-05, 0, 3.05, 0.125, 376000, 0, 3e+10, 3e+10, 0, 0.1, 30, 15, 4e+07, 4e+06, 0, 0, 3.3, 1000, 13000, 16000, 16000, 1
;(4) olivine, same as (8)
12, 1, 3300, 3e-05, 0, 3, 70000, 520000, 0, 3e+10, 3e+10, 0, 0.1, 30, 15, 4e+07, 4e+06, 0, 0, 3.3, 1000, 13000, 16000, 16000, 1
;(5) shist, transformed from (17)
11, 1, 2900, 3e-05, 0, 3, 70000, 376000, 0, 3e+10, 3e+10, 0, 0.1, 30, 15, 4e+07, 4e+06, 0, 0, 3.3, 1000, 13000, 16000, 16000, 1
;(6) continental crust, same as (2)
12, 1, 2900, 3e-05, 0, 3.05, 0.125, 276000, 0, 3e+10, 3e+10, 0, 0.1, 30, 15, 4e+07, 4e+06, 0, 0, 3.3, 1000, 13000, 16000, 16000, 1
;(7) basalt, same as (3)
12, 1, 2880, 3e-05, 0, 3.05, 0.125, 376000, 0, 3e+10, 3e+10, 0, 0.1, 30, 15, 4e+07, 4e+06, 0, 0, 3.3, 1000, 13000, 16000, 16000, 1
;(8) olivine, same as (4), transformed from (9)
12, 1, 3300, 3e-05, 0, 3, 70000, 520000, 0, 3e+10, 3e+10, 0, 0.1, 30, 15, 4e+07, 4e+06, 0, 0, 3.3, 1000, 13000, 16000, 16000, 1
;(9) weak olivine (serpentinite), transformed from (4) and (8), if overlying subducted oceaninc crust phase (3), (7) or (1); transform back to (4) if deeper than 65 km
12, 1, 3200, 3e-05, 0, 3, 70000, 120000, 0, 3e+10, 3e+10, 0, 0.1, 3, 3, 4e+06, 4e+06, 0, 0, 3.3, 1000, 13000, 16000, 16000, 1
;(10) basalt, no dehydration
12, 1, 2880, 3e-05, 0, 3.05, 0.125, 376000, 0, 3e+10, 3e+10, 0, 0.1, 30, 15, 4e+07, 4e+06, 0, 0, 3.3, 1000, 13000, 16000, 16000, 1
;(11) sedimentary rock, transformed from (1)
12, 1, 2600, 3e-05, 0, 3, 500, 200000, 0, 3e+10, 3e+10, 0, 0.1, 15, 3, 4e+07, 4e+06, 0, 0, 3.3, 1000, 13000, 16000, 16000, 1
;(12) weak crust, transformed from (2) and (6), if overlying oceanic crust (3), (7), (1), (14)
12, 1, 2800, 3e-05, 0, 3.05, 0.125, 176000, 0, 3e+10, 3e+10, 0, 0.1, 3, 3, 4e+06, 4e+06, 0, 0, 3.3, 1000, 13000, 16000, 16000, 1
;(13) eclogite, transformed from (3) and (7), denser and more viscous
12, 1, 3480, 3e-05, 0, 3.05, 0.125, 450000, 0, 3e+10, 3e+10, 0, 0.1, 30, 15, 4e+07, 4e+06, 0, 0, 3.3, 1000, 13000, 16000, 16000, 1
;(14) arc
12, 1, 2900, 3e-05, 0, 3.05, 0.125, 576000, 0, 3e+10, 3e+10, 0, 0.1, 30, 15, 4e+07, 4e+06, 0, 0, 3.3, 1000, 13000, 16000, 16000, 1
;(15) weak middle crust, transformed from (2) and (6) if stressed and heated (disabled)
12, 1, 2800, 3e-05, 0, 3, 500, 200000, 0, 3e+10, 3e+10, 0, 0.1, 3, 3, 4e+06, 4e+06, 0, 0, 3.3, 1000, 13000, 16000, 16000, 1
;(16) olivine, hydated (chlorite-containing)
12, 1, 3200, 3e-05, 0, 3, 70000, 520000, 0, 3e+10, 3e+10, 0, 0.1, 30, 15, 4e+07, 4e+06, 0, 0, 3.3, 1000, 13000, 16000, 16000, 1
;(17) metamorphic sedimentary rock, transformed from (11)
12, 1, 2800, 3e-05, 0, 3, 500, 200000, 0, 3e+10, 3e+10, 0, 0.1, 30, 15, 4e+07, 4e+06, 0, 0, 3.3, 1000, 13000, 16000, 16000, 1
;(18) dry mantle
12, 1, 3330, 3e-05, 0, 3.2, 110000, 680000, 0, 3e+10, 3e+10, 0, 0.1, 30, 25, 4e+07, 2e+07, 0, 0, 3.3, 1000, 13000, 16000, 16000, 1
; INITIAL PHASE DISTRIBUTION
0  ; irphase (0,1) read a distribution of phases
phasedat.inp  ; file with distribution of phase on the 2D grid (phasedat)
;
; Initial heterogeneities
8
; ix1   ix2   iy1   iy2   phase   geometry    init.pl.strain (amp)
  27  43  5  16  16  4  1
  28  44  5  16  16  4  1
  29  45  5  16  3   4  1
  30  46  5  16  3  4  1  ; subducted oceanic crust
  31  47  5  16  3  4  1
  32  48  2  16  -1  4  1  ; weak zone
  33  49  2  16  -1  4  1
  21  35  2  17  0  13  -500  ; cold slab
;
; Tension cut off
1000000000.0
;
; linear healing parameter
0.0
;
; VISCOSITY LIMIT
1e+21, 3e+27, 2, 500.0
;
; Magma:
1, 3, 1, 2e-11, 2700.0
30.0, 0.1, 0.1
420000.0, 1e-13, 0.002
1.0, 1.0
;
;=================================================================
;                       R e m e s h i n g
;=================================================================
1  3  50  3.0
1.3
1e-06  0.0
;
;=================================================================
;                   P r o c e s s   c o n t r o l
;=================================================================
2
1.0,0.0006
1,5.0
10
10
10
10
;
0.45,0.5
1,2
0.8,1,1
;
;======================================================================
;                             O U T P U T
;======================================================================
; Max time of calculations (in Kyr)
4003.0  ;  4 Myrs
;
; Time interval for screen output of calc. progress (in Kyr)
200.0
;
; Time interval for file output (in Kyr)
200.0
;
; Variables to print
  1   1   1   1   1   1   1   1   1   1   1   1   1   1   1   1   1   1   1
;
; output for last step only (10) or each nout step (0)
0
;
; Time interval for process saving
1000.0
;
; saving the last step only (10) or each nsave step (0)
1
